658
3748
2779
223
1304
840
831
1892
1950
272
2206
777
507
425
3573
739
3310
566
2448
207
3000
2849
2378
3162
1061
1950
1402
316
2133
994
2471
466
2377
2511
3771
2591
3605
3723
805
3345
2342
1513
2826
2849
1307
2640
3770
530
799
2269
3737
1623
1944
1256
1304
2360
3349
269
2199
3799
2831
2463
330
3310
1295
1801
1653
800
2207
2118
215
2803
2099
2911
2222
1300
1834
194
1715
873
1204
3576
3264
3510
1236
3385
1743
2426
2628
863
3879
2742
1622
1259
1407
165
497
2824
959
923
